c grid_3_16
p ds 48 77
1 17
1 2
2 18
2 3
3 19
3 4
4 20
4 5
5 21
5 6
6 22
6 7
7 23
7 8
8 24
8 9
9 25
9 10
10 26
10 11
11 27
11 12
12 28
12 13
13 29
13 14
14 30
14 15
15 31
15 16
16 32
17 33
17 18
18 34
18 19
19 35
19 20
20 36
20 21
21 37
21 22
22 38
22 23
23 39
23 24
24 40
24 25
25 41
25 26
26 42
26 27
27 43
27 28
28 44
28 29
29 45
29 30
30 46
30 31
31 47
31 32
32 48
33 34
34 35
35 36
36 37
37 38
38 39
39 40
40 41
41 42
42 43
43 44
44 45
45 46
46 47
47 48
